p cnf 480 1413
a 9 11 13 15 0
d 1 9 0
d 3 11 0
d 5 13 0
d 7 15 0
d 2 9 0
d 4 9 11 0
d 6 9 11 13 0
d 8 9 11 13 15 0
d 10 9 11 13 15 0
d 12 9 11 13 15 0
d 14 9 11 13 15 0
d 16 9 11 13 15 0
d 17 11 0
d 18 9 11 0
d 19 9 11 13 0
d 20 9 11 13 15 0
d 21 9 11 13 15 0
d 22 9 11 13 15 0
d 23 9 11 13 15 0
d 24 9 11 13 15 0
d 25 9 11 13 15 0
d 26 9 11 0
d 27 13 0
d 28 9 11 13 0
d 29 9 11 13 15 0
d 30 9 11 13 15 0
d 31 9 11 13 15 0
d 32 9 11 13 15 0
d 33 9 11 13 15 0
d 34 9 11 13 15 0
d 35 9 11 13 0
d 36 9 11 13 15 0
d 37 9 11 13 15 0
d 38 9 11 13 15 0
d 39 9 11 13 15 0
d 40 9 11 13 15 0
d 41 9 11 13 15 0
d 42 9 11 0
d 43 9 11 13 0
d 44 9 11 13 15 0
d 45 9 11 13 15 0
d 46 9 11 13 15 0
d 47 9 11 13 15 0
d 48 9 11 13 15 0
d 49 9 11 13 15 0
d 50 15 0
d 51 9 11 13 15 0
d 52 9 11 13 15 0
d 53 9 11 13 15 0
d 54 9 11 13 15 0
d 55 9 11 13 15 0
d 56 9 11 13 15 0
d 57 9 11 13 15 0
d 58 9 11 13 15 0
d 59 9 11 13 15 0
d 60 9 11 13 15 0
d 61 9 11 13 15 0
d 62 9 11 13 15 0
d 63 9 11 13 0
d 64 9 11 13 15 0
d 65 9 11 13 15 0
d 66 9 11 13 15 0
d 67 9 11 13 15 0
d 68 9 11 13 15 0
d 69 9 11 13 15 0
d 70 9 11 13 15 0
d 71 9 11 13 15 0
d 72 9 11 13 15 0
d 73 9 11 13 15 0
d 74 9 11 13 15 0
d 75 9 11 13 15 0
d 76 9 0
d 77 9 11 13 15 0
d 78 9 11 13 15 0
d 79 9 11 13 15 0
d 80 9 11 13 15 0
d 81 9 11 13 15 0
d 82 9 11 13 15 0
d 83 9 11 13 15 0
d 84 9 11 13 15 0
d 85 9 11 13 15 0
d 86 9 11 13 15 0
d 87 9 11 13 15 0
d 88 9 11 13 15 0
d 89 9 11 13 15 0
d 90 9 11 13 15 0
d 91 9 11 13 15 0
d 92 9 11 13 15 0
d 93 9 11 13 15 0
d 94 9 11 13 15 0
d 95 9 11 13 15 0
d 96 9 11 13 15 0
d 97 9 11 13 0
d 98 9 11 13 15 0
d 99 9 11 13 15 0
d 100 9 11 13 15 0
d 101 9 11 13 15 0
d 102 9 11 13 15 0
d 103 9 11 13 15 0
d 104 9 11 13 15 0
d 105 9 11 13 15 0
d 106 9 11 13 15 0
d 107 9 11 13 15 0
d 108 9 11 13 15 0
d 109 9 11 13 15 0
d 110 9 11 13 15 0
d 111 9 11 13 15 0
d 112 9 11 13 15 0
d 113 9 11 13 15 0
d 114 9 11 13 15 0
d 115 9 11 13 15 0
d 116 9 11 13 15 0
d 117 9 11 13 15 0
d 118 9 11 13 15 0
d 119 9 11 13 15 0
d 120 9 11 13 15 0
d 121 9 11 13 15 0
d 122 11 0
d 123 9 11 13 15 0
d 124 9 11 13 15 0
d 125 9 11 13 15 0
d 126 9 11 13 15 0
d 127 9 11 13 15 0
d 128 9 11 13 15 0
d 129 9 11 13 15 0
d 130 9 11 13 15 0
d 131 9 11 13 15 0
d 132 9 11 13 15 0
d 133 9 11 13 15 0
d 134 9 11 13 15 0
d 135 9 11 13 0
d 136 9 11 13 15 0
d 137 9 11 13 15 0
d 138 9 11 13 15 0
d 139 9 11 13 15 0
d 140 9 11 13 15 0
d 141 9 11 13 15 0
d 142 9 11 13 15 0
d 143 9 11 13 15 0
d 144 9 11 13 15 0
d 145 9 11 13 15 0
d 146 9 11 13 15 0
d 147 9 11 13 15 0
d 148 9 11 13 15 0
d 149 9 11 13 15 0
d 150 9 11 13 15 0
d 151 9 11 13 15 0
d 152 9 11 13 15 0
d 153 9 11 13 15 0
d 154 9 11 13 15 0
d 155 9 11 13 15 0
d 156 9 11 13 15 0
d 157 9 11 13 15 0
d 158 9 11 13 15 0
d 159 9 11 13 15 0
d 160 9 11 13 15 0
d 161 9 11 13 15 0
d 162 9 11 13 15 0
d 163 9 11 13 15 0
d 164 9 11 13 15 0
d 165 9 11 13 15 0
d 166 9 11 13 15 0
d 167 9 11 13 15 0
d 168 9 11 13 15 0
d 169 9 11 13 15 0
d 170 9 11 13 15 0
d 171 9 11 13 15 0
d 172 9 11 13 15 0
d 173 9 11 13 15 0
d 174 9 11 13 15 0
d 175 9 11 13 15 0
d 176 9 11 13 15 0
d 177 9 11 13 15 0
d 178 9 11 13 15 0
d 179 9 11 13 15 0
d 180 9 11 13 15 0
d 181 9 11 13 15 0
d 182 9 11 13 15 0
d 183 9 11 13 15 0
d 184 9 11 13 15 0
d 185 9 11 13 15 0
d 186 9 11 13 15 0
d 187 9 11 13 15 0
d 188 9 11 13 15 0
d 189 9 11 13 15 0
d 190 9 11 13 15 0
d 191 9 11 13 15 0
d 192 9 11 13 15 0
d 193 9 11 13 15 0
d 194 9 11 13 15 0
d 195 9 11 13 15 0
d 196 9 11 13 15 0
d 197 9 11 13 15 0
d 198 9 11 13 15 0
d 199 9 11 13 15 0
d 200 9 11 13 15 0
d 201 9 11 13 15 0
d 202 9 11 13 15 0
d 203 9 11 13 15 0
d 204 13 0
d 205 9 11 13 15 0
d 206 9 11 13 15 0
d 207 9 11 13 15 0
d 208 9 11 13 15 0
d 209 9 11 13 15 0
d 210 9 11 13 15 0
d 211 9 11 13 15 0
d 212 9 11 13 15 0
d 213 9 11 13 15 0
d 214 9 11 13 15 0
d 215 9 11 13 15 0
d 216 9 11 13 15 0
d 217 9 11 13 15 0
d 218 9 11 13 15 0
d 219 9 11 13 15 0
d 220 9 11 13 15 0
d 221 9 11 13 15 0
d 222 9 11 13 15 0
d 223 9 11 13 15 0
d 224 9 11 13 15 0
d 225 9 11 13 15 0
d 226 9 11 13 15 0
d 227 9 11 13 15 0
d 228 9 11 13 15 0
d 229 9 11 13 15 0
d 230 9 11 13 15 0
d 231 9 11 13 15 0
d 232 9 11 13 15 0
d 233 9 11 13 15 0
d 234 9 11 13 15 0
d 235 9 11 13 15 0
d 236 9 11 13 15 0
d 237 9 11 13 15 0
d 238 9 11 13 15 0
d 239 9 11 13 15 0
d 240 9 11 13 15 0
d 241 9 11 13 15 0
d 242 9 11 13 15 0
d 243 9 11 13 15 0
d 244 9 11 13 15 0
d 245 9 11 13 15 0
d 246 9 11 13 15 0
d 247 9 11 13 15 0
d 248 9 11 13 15 0
d 249 9 11 13 15 0
d 250 9 11 13 15 0
d 251 9 11 13 15 0
d 252 9 11 13 15 0
d 253 9 11 13 15 0
d 254 9 11 13 15 0
d 255 9 11 13 15 0
d 256 9 11 13 15 0
d 257 9 11 13 15 0
d 258 9 11 13 15 0
d 259 9 11 13 15 0
d 260 9 11 13 15 0
d 261 9 11 13 15 0
d 262 9 11 13 15 0
d 263 9 11 13 15 0
d 264 9 11 13 15 0
d 265 9 11 13 15 0
d 266 9 11 13 15 0
d 267 9 11 13 15 0
d 268 9 11 13 15 0
d 269 9 11 13 15 0
d 270 9 11 13 15 0
d 271 9 11 13 15 0
d 272 9 11 13 15 0
d 273 9 11 13 15 0
d 274 9 11 13 15 0
d 275 9 11 13 15 0
d 276 9 11 13 15 0
d 277 9 11 13 15 0
d 278 9 11 13 15 0
d 279 9 11 13 15 0
d 280 9 11 13 15 0
d 281 9 11 13 15 0
d 282 9 11 13 15 0
d 283 9 11 13 15 0
d 284 9 11 13 15 0
d 285 9 11 13 15 0
d 286 9 11 13 15 0
d 287 9 11 13 15 0
d 288 9 11 13 15 0
d 289 9 11 13 15 0
d 290 9 11 13 15 0
d 291 9 11 13 15 0
d 292 9 11 13 15 0
d 293 9 11 13 15 0
d 294 9 11 13 15 0
d 295 9 11 13 15 0
d 296 15 0
d 297 9 11 13 15 0
d 298 9 11 13 15 0
d 299 9 11 13 15 0
d 300 9 11 13 15 0
d 301 9 11 13 15 0
d 302 9 11 13 15 0
d 303 9 11 13 15 0
d 304 9 11 13 15 0
d 305 9 11 13 15 0
d 306 9 11 13 15 0
d 307 9 11 13 15 0
d 308 9 11 13 15 0
d 309 9 11 13 15 0
d 310 9 11 13 15 0
d 311 9 11 13 15 0
d 312 9 11 13 15 0
d 313 9 11 13 15 0
d 314 9 11 13 15 0
d 315 9 11 13 15 0
d 316 9 11 13 15 0
d 317 9 11 13 15 0
d 318 9 11 13 15 0
d 319 9 11 13 15 0
d 320 9 11 13 15 0
d 321 9 11 13 15 0
d 322 9 11 13 15 0
d 323 9 11 13 15 0
d 324 9 11 13 15 0
d 325 9 11 13 15 0
d 326 9 11 13 15 0
d 327 9 11 13 15 0
d 328 9 11 13 15 0
d 329 9 11 13 15 0
d 330 9 11 13 15 0
d 331 9 11 13 15 0
d 332 9 11 13 15 0
d 333 9 11 13 15 0
d 334 9 11 13 15 0
d 335 9 11 13 15 0
d 336 9 11 13 15 0
d 337 9 11 13 15 0
d 338 9 11 13 15 0
d 339 9 11 13 15 0
d 340 9 11 13 15 0
d 341 9 11 13 15 0
d 342 9 11 13 15 0
d 343 9 11 13 15 0
d 344 9 11 13 15 0
d 345 9 11 13 15 0
d 346 9 11 13 15 0
d 347 9 11 13 15 0
d 348 9 11 13 15 0
d 349 9 11 13 15 0
d 350 9 11 13 15 0
d 351 9 11 13 15 0
d 352 9 11 13 15 0
d 353 9 11 13 15 0
d 354 9 11 13 15 0
d 355 9 11 13 15 0
d 356 9 11 13 15 0
d 357 9 11 13 15 0
d 358 9 11 13 15 0
d 359 9 11 13 15 0
d 360 9 11 13 15 0
d 361 9 11 13 15 0
d 362 9 11 13 15 0
d 363 9 11 13 15 0
d 364 9 11 13 15 0
d 365 9 11 13 15 0
d 366 9 11 13 15 0
d 367 9 11 13 15 0
d 368 9 11 13 15 0
d 369 9 11 13 15 0
d 370 9 11 13 15 0
d 371 9 11 13 15 0
d 372 9 11 13 15 0
d 373 9 11 13 15 0
d 374 9 11 13 15 0
d 375 9 11 13 15 0
d 376 9 11 13 15 0
d 377 9 11 13 15 0
d 378 9 11 13 15 0
d 379 9 11 13 15 0
d 380 9 11 13 15 0
d 381 9 11 13 15 0
d 382 9 11 13 15 0
d 383 9 11 13 15 0
d 384 9 11 13 15 0
d 385 9 11 13 15 0
d 386 9 11 13 15 0
d 387 9 11 13 15 0
d 388 9 11 13 15 0
d 389 9 11 13 15 0
d 390 9 11 13 15 0
d 391 9 11 13 15 0
d 392 9 11 13 15 0
d 393 9 11 13 15 0
d 394 9 11 13 15 0
d 395 9 11 13 15 0
d 396 9 11 13 15 0
d 397 9 11 13 15 0
d 398 9 11 13 15 0
d 399 9 11 13 15 0
d 400 9 11 13 15 0
d 401 9 11 13 15 0
d 402 9 11 13 15 0
d 403 9 11 13 15 0
d 404 9 11 13 15 0
d 405 9 11 13 15 0
d 406 9 11 13 15 0
d 407 9 11 13 15 0
d 408 9 11 13 15 0
d 409 9 11 13 15 0
d 410 9 11 13 15 0
d 411 9 11 13 15 0
d 412 9 11 13 15 0
d 413 9 11 13 15 0
d 414 9 11 13 15 0
d 415 9 11 13 15 0
d 416 9 11 13 15 0
d 417 9 11 13 15 0
d 418 9 11 13 15 0
d 419 9 11 13 15 0
d 420 9 11 13 15 0
d 421 9 11 13 15 0
d 422 9 11 13 15 0
d 423 9 11 13 15 0
d 424 9 11 13 15 0
d 425 9 11 13 15 0
d 426 9 11 13 15 0
d 427 9 11 13 15 0
d 428 9 11 13 15 0
d 429 9 11 13 15 0
d 430 9 11 13 15 0
d 431 9 11 13 15 0
d 432 9 11 13 15 0
d 433 9 11 13 15 0
d 434 9 11 13 15 0
d 435 9 11 13 15 0
d 436 9 11 13 15 0
d 437 9 11 13 15 0
d 438 9 11 13 15 0
d 439 9 11 13 15 0
d 440 9 11 13 15 0
d 441 9 11 13 15 0
d 442 9 11 13 15 0
d 443 9 11 13 15 0
d 444 9 11 13 15 0
d 445 9 11 13 15 0
d 446 9 11 13 15 0
d 447 9 11 13 15 0
d 448 9 11 13 15 0
d 449 9 11 13 15 0
d 450 9 11 13 15 0
d 451 9 11 13 15 0
d 452 9 11 13 15 0
d 453 9 11 13 15 0
d 454 9 11 13 15 0
d 455 9 11 13 15 0
d 456 9 11 13 15 0
d 457 9 11 13 15 0
d 458 9 11 13 15 0
d 459 9 11 13 15 0
d 460 9 11 13 15 0
d 461 9 11 13 15 0
d 462 9 11 13 15 0
d 463 9 11 13 15 0
d 464 9 11 13 15 0
d 465 9 11 13 15 0
d 466 9 11 13 15 0
d 467 9 11 13 15 0
d 468 9 11 13 15 0
d 469 9 11 13 15 0
d 470 9 11 13 15 0
d 471 9 11 13 15 0
d 472 9 11 13 15 0
d 473 9 11 13 15 0
d 474 9 11 13 15 0
d 475 9 11 13 15 0
d 476 9 11 13 15 0
d 477 9 11 0
d 478 9 11 13 0
d 479 9 11 13 15 0
d 480 9 11 13 15 0
2 1 0
-2 -1 0
-4 2 0
-4 3 0
4 -2 -3 0
-6 4 0
-6 5 0
6 -4 -5 0
-8 6 0
-8 7 0
8 -6 -7 0
-10 8 0
-10 9 0
10 -8 -9 0
-12 10 0
-12 11 0
12 -10 -11 0
-14 12 0
-14 13 0
14 -12 -13 0
-16 14 0
-16 15 0
16 -14 -15 0
17 3 0
-17 -3 0
-18 1 0
-18 17 0
18 -1 -17 0
-19 18 0
-19 5 0
19 -18 -5 0
-20 19 0
-20 7 0
20 -19 -7 0
-21 20 0
-21 9 0
21 -20 -9 0
-22 21 0
-22 11 0
22 -21 -11 0
-23 22 0
-23 13 0
23 -22 -13 0
-24 23 0
-24 15 0
24 -23 -15 0
25 -16 0
25 -24 0
-25 16 24 0
-26 1 0
-26 3 0
26 -1 -3 0
27 5 0
-27 -5 0
-28 26 0
-28 27 0
28 -26 -27 0
-29 28 0
-29 7 0
29 -28 -7 0
-30 29 0
-30 9 0
30 -29 -9 0
-31 30 0
-31 11 0
31 -30 -11 0
-32 31 0
-32 13 0
32 -31 -13 0
-33 32 0
-33 15 0
33 -32 -15 0
34 -25 0
34 -33 0
-34 25 33 0
-35 18 0
-35 27 0
35 -18 -27 0
-36 35 0
-36 7 0
36 -35 -7 0
-37 36 0
-37 9 0
37 -36 -9 0
-38 37 0
-38 11 0
38 -37 -11 0
-39 38 0
-39 13 0
39 -38 -13 0
-40 39 0
-40 15 0
40 -39 -15 0
41 -34 0
41 -40 0
-41 34 40 0
-42 2 0
-42 17 0
42 -2 -17 0
-43 42 0
-43 27 0
43 -42 -27 0
-44 43 0
-44 7 0
44 -43 -7 0
-45 44 0
-45 9 0
45 -44 -9 0
-46 45 0
-46 11 0
46 -45 -11 0
-47 46 0
-47 13 0
47 -46 -13 0
-48 47 0
-48 15 0
48 -47 -15 0
49 -41 0
49 -48 0
-49 41 48 0
50 7 0
-50 -7 0
-51 6 0
-51 50 0
51 -6 -50 0
-52 51 0
-52 9 0
52 -51 -9 0
-53 52 0
-53 11 0
53 -52 -11 0
-54 53 0
-54 13 0
54 -53 -13 0
-55 54 0
-55 15 0
55 -54 -15 0
56 -49 0
56 -55 0
-56 49 55 0
-57 19 0
-57 50 0
57 -19 -50 0
-58 57 0
-58 9 0
58 -57 -9 0
-59 58 0
-59 11 0
59 -58 -11 0
-60 59 0
-60 13 0
60 -59 -13 0
-61 60 0
-61 15 0
61 -60 -15 0
62 -56 0
62 -61 0
-62 56 61 0
-63 4 0
-63 27 0
63 -4 -27 0
-64 63 0
-64 50 0
64 -63 -50 0
-65 64 0
-65 9 0
65 -64 -9 0
-66 65 0
-66 11 0
66 -65 -11 0
-67 66 0
-67 13 0
67 -66 -13 0
-68 67 0
-68 15 0
68 -67 -15 0
69 -62 0
69 -68 0
-69 62 68 0
-70 35 0
-70 50 0
70 -35 -50 0
-71 70 0
-71 9 0
71 -70 -9 0
-72 71 0
-72 11 0
72 -71 -11 0
-73 72 0
-73 13 0
73 -72 -13 0
-74 73 0
-74 15 0
74 -73 -15 0
75 -69 0
75 -74 0
-75 69 74 0
76 9 0
-76 -9 0
-77 8 0
-77 76 0
77 -8 -76 0
-78 77 0
-78 11 0
78 -77 -11 0
-79 78 0
-79 13 0
79 -78 -13 0
-80 79 0
-80 15 0
80 -79 -15 0
81 -75 0
81 -80 0
-81 75 80 0
-82 29 0
-82 76 0
82 -29 -76 0
-83 82 0
-83 11 0
83 -82 -11 0
-84 83 0
-84 13 0
84 -83 -13 0
-85 84 0
-85 15 0
85 -84 -15 0
86 -81 0
86 -85 0
-86 81 85 0
-87 36 0
-87 76 0
87 -36 -76 0
-88 87 0
-88 11 0
88 -87 -11 0
-89 88 0
-89 13 0
89 -88 -13 0
-90 89 0
-90 15 0
90 -89 -15 0
91 -86 0
91 -90 0
-91 86 90 0
-92 44 0
-92 76 0
92 -44 -76 0
-93 92 0
-93 11 0
93 -92 -11 0
-94 93 0
-94 13 0
94 -93 -13 0
-95 94 0
-95 15 0
95 -94 -15 0
96 -91 0
96 -95 0
-96 91 95 0
-97 26 0
-97 5 0
97 -26 -5 0
-98 97 0
-98 50 0
98 -97 -50 0
-99 98 0
-99 76 0
99 -98 -76 0
-100 99 0
-100 11 0
100 -99 -11 0
-101 100 0
-101 13 0
101 -100 -13 0
-102 101 0
-102 15 0
102 -101 -15 0
103 -96 0
103 -102 0
-103 96 102 0
-104 51 0
-104 76 0
104 -51 -76 0
-105 104 0
-105 11 0
105 -104 -11 0
-106 105 0
-106 13 0
106 -105 -13 0
-107 106 0
-107 15 0
107 -106 -15 0
108 -103 0
108 -107 0
-108 103 107 0
-109 28 0
-109 50 0
109 -28 -50 0
-110 109 0
-110 76 0
110 -109 -76 0
-111 110 0
-111 11 0
111 -110 -11 0
-112 111 0
-112 13 0
112 -111 -13 0
-113 112 0
-113 15 0
113 -112 -15 0
114 -108 0
114 -113 0
-114 108 113 0
-115 70 0
-115 76 0
115 -70 -76 0
-116 115 0
-116 11 0
116 -115 -11 0
-117 116 0
-117 13 0
117 -116 -13 0
-118 117 0
-118 15 0
118 -117 -15 0
119 -114 0
119 -118 0
-119 114 118 0
-120 97 0
-120 7 0
120 -97 -7 0
-121 120 0
-121 9 0
121 -120 -9 0
122 11 0
-122 -11 0
-123 121 0
-123 122 0
123 -121 -122 0
-124 123 0
-124 13 0
124 -123 -13 0
-125 124 0
-125 15 0
125 -124 -15 0
126 -119 0
126 -125 0
-126 119 125 0
-127 10 0
-127 122 0
127 -10 -122 0
-128 127 0
-128 13 0
128 -127 -13 0
-129 128 0
-129 15 0
129 -128 -15 0
130 -126 0
130 -129 0
-130 126 129 0
-131 21 0
-131 122 0
131 -21 -122 0
-132 131 0
-132 13 0
132 -131 -13 0
-133 132 0
-133 15 0
133 -132 -15 0
134 -130 0
134 -133 0
-134 130 133 0
-135 42 0
-135 5 0
135 -42 -5 0
-136 135 0
-136 7 0
136 -135 -7 0
-137 136 0
-137 9 0
137 -136 -9 0
-138 137 0
-138 122 0
138 -137 -122 0
-139 138 0
-139 13 0
139 -138 -13 0
-140 139 0
-140 15 0
140 -139 -15 0
141 -134 0
141 -140 0
-141 134 140 0
-142 63 0
-142 7 0
142 -63 -7 0
-143 142 0
-143 9 0
143 -142 -9 0
-144 143 0
-144 122 0
144 -143 -122 0
-145 144 0
-145 13 0
145 -144 -13 0
-146 145 0
-146 15 0
146 -145 -15 0
147 -141 0
147 -146 0
-147 141 146 0
-148 98 0
-148 9 0
148 -98 -9 0
-149 148 0
-149 122 0
149 -148 -122 0
-150 149 0
-150 13 0
150 -149 -13 0
-151 150 0
-151 15 0
151 -150 -15 0
152 -147 0
152 -151 0
-152 147 151 0
-153 120 0
-153 76 0
153 -120 -76 0
-154 153 0
-154 122 0
154 -153 -122 0
-155 154 0
-155 13 0
155 -154 -13 0
-156 155 0
-156 15 0
156 -155 -15 0
157 -152 0
157 -156 0
-157 152 156 0
-158 20 0
-158 76 0
158 -20 -76 0
-159 158 0
-159 122 0
159 -158 -122 0
-160 159 0
-160 13 0
160 -159 -13 0
-161 160 0
-161 15 0
161 -160 -15 0
162 -157 0
162 -161 0
-162 157 161 0
-163 82 0
-163 122 0
163 -82 -122 0
-164 163 0
-164 13 0
164 -163 -13 0
-165 164 0
-165 15 0
165 -164 -15 0
166 -162 0
166 -165 0
-166 162 165 0
-167 142 0
-167 76 0
167 -142 -76 0
-168 167 0
-168 122 0
168 -167 -122 0
-169 168 0
-169 13 0
169 -168 -13 0
-170 169 0
-170 15 0
170 -169 -15 0
171 -166 0
171 -170 0
-171 166 170 0
-172 87 0
-172 122 0
172 -87 -122 0
-173 172 0
-173 13 0
173 -172 -13 0
-174 173 0
-174 15 0
174 -173 -15 0
175 -171 0
175 -174 0
-175 171 174 0
-176 92 0
-176 122 0
176 -92 -122 0
-177 176 0
-177 13 0
177 -176 -13 0
-178 177 0
-178 15 0
178 -177 -15 0
179 -175 0
179 -178 0
-179 175 178 0
-180 99 0
-180 122 0
180 -99 -122 0
-181 180 0
-181 13 0
181 -180 -13 0
-182 181 0
-182 15 0
182 -181 -15 0
183 -179 0
183 -182 0
-183 179 182 0
-184 57 0
-184 76 0
184 -57 -76 0
-185 184 0
-185 122 0
185 -184 -122 0
-186 185 0
-186 13 0
186 -185 -13 0
-187 186 0
-187 15 0
187 -186 -15 0
188 -183 0
188 -187 0
-188 183 187 0
-189 135 0
-189 50 0
189 -135 -50 0
-190 189 0
-190 76 0
190 -189 -76 0
-191 190 0
-191 122 0
191 -190 -122 0
-192 191 0
-192 13 0
192 -191 -13 0
-193 192 0
-193 15 0
193 -192 -15 0
194 -188 0
194 -193 0
-194 188 193 0
-195 110 0
-195 122 0
195 -110 -122 0
-196 195 0
-196 13 0
196 -195 -13 0
-197 196 0
-197 15 0
197 -196 -15 0
198 -194 0
198 -197 0
-198 194 197 0
-199 115 0
-199 122 0
199 -115 -122 0
-200 199 0
-200 13 0
200 -199 -13 0
-201 200 0
-201 15 0
201 -200 -15 0
202 -198 0
202 -201 0
-202 198 201 0
-203 121 0
-203 11 0
203 -121 -11 0
204 13 0
-204 -13 0
-205 203 0
-205 204 0
205 -203 -204 0
-206 205 0
-206 15 0
206 -205 -15 0
207 -202 0
207 -206 0
-207 202 206 0
-208 46 0
-208 204 0
208 -46 -204 0
-209 208 0
-209 15 0
209 -208 -15 0
210 -207 0
210 -209 0
-210 207 209 0
-211 148 0
-211 11 0
211 -148 -11 0
-212 211 0
-212 204 0
212 -211 -204 0
-213 212 0
-213 15 0
213 -212 -15 0
214 -210 0
214 -213 0
-214 210 213 0
-215 189 0
-215 9 0
215 -189 -9 0
-216 215 0
-216 11 0
216 -215 -11 0
-217 216 0
-217 204 0
217 -216 -204 0
-218 217 0
-218 15 0
218 -217 -15 0
219 -214 0
219 -218 0
-219 214 218 0
-220 109 0
-220 9 0
220 -109 -9 0
-221 220 0
-221 11 0
221 -220 -11 0
-222 221 0
-222 204 0
222 -221 -204 0
-223 222 0
-223 15 0
223 -222 -15 0
224 -219 0
224 -223 0
-224 219 223 0
-225 72 0
-225 204 0
225 -72 -204 0
-226 225 0
-226 15 0
226 -225 -15 0
227 -224 0
227 -226 0
-227 224 226 0
-228 158 0
-228 11 0
228 -158 -11 0
-229 228 0
-229 204 0
229 -228 -204 0
-230 229 0
-230 15 0
230 -229 -15 0
231 -227 0
231 -230 0
-231 227 230 0
-232 167 0
-232 11 0
232 -167 -11 0
-233 232 0
-233 204 0
233 -232 -204 0
-234 233 0
-234 15 0
234 -233 -15 0
235 -231 0
235 -234 0
-235 231 234 0
-236 184 0
-236 11 0
236 -184 -11 0
-237 236 0
-237 204 0
237 -236 -204 0
-238 237 0
-238 15 0
238 -237 -15 0
239 -235 0
239 -238 0
-239 235 238 0
-240 190 0
-240 11 0
240 -190 -11 0
-241 240 0
-241 204 0
241 -240 -204 0
-242 241 0
-242 15 0
242 -241 -15 0
243 -239 0
243 -242 0
-243 239 242 0
-244 116 0
-244 204 0
244 -116 -204 0
-245 244 0
-245 15 0
245 -244 -15 0
246 -243 0
246 -245 0
-246 243 245 0
-247 123 0
-247 204 0
247 -123 -204 0
-248 247 0
-248 15 0
248 -247 -15 0
249 -246 0
249 -248 0
-249 246 248 0
-250 138 0
-250 204 0
250 -138 -204 0
-251 250 0
-251 15 0
251 -250 -15 0
252 -249 0
252 -251 0
-252 249 251 0
-253 37 0
-253 122 0
253 -37 -122 0
-254 253 0
-254 204 0
254 -253 -204 0
-255 254 0
-255 15 0
255 -254 -15 0
256 -252 0
256 -255 0
-256 252 255 0
-257 58 0
-257 122 0
257 -58 -122 0
-258 257 0
-258 204 0
258 -257 -204 0
-259 258 0
-259 15 0
259 -258 -15 0
260 -256 0
260 -259 0
-260 256 259 0
-261 215 0
-261 122 0
261 -215 -122 0
-262 261 0
-262 204 0
262 -261 -204 0
-263 262 0
-263 15 0
263 -262 -15 0
264 -260 0
264 -263 0
-264 260 263 0
-265 77 0
-265 122 0
265 -77 -122 0
-266 265 0
-266 204 0
266 -265 -204 0
-267 266 0
-267 15 0
267 -266 -15 0
268 -264 0
268 -267 0
-268 264 267 0
-269 159 0
-269 204 0
269 -159 -204 0
-270 269 0
-270 15 0
270 -269 -15 0
271 -268 0
271 -270 0
-271 268 270 0
-272 136 0
-272 76 0
272 -136 -76 0
-273 272 0
-273 122 0
273 -272 -122 0
-274 273 0
-274 204 0
274 -273 -204 0
-275 274 0
-275 15 0
275 -274 -15 0
276 -271 0
276 -275 0
-276 271 275 0
-277 172 0
-277 204 0
277 -172 -204 0
-278 277 0
-278 15 0
278 -277 -15 0
279 -276 0
279 -278 0
-279 276 278 0
-280 185 0
-280 204 0
280 -185 -204 0
-281 280 0
-281 15 0
281 -280 -15 0
282 -279 0
282 -281 0
-282 279 281 0
-283 191 0
-283 204 0
283 -191 -204 0
-284 283 0
-284 15 0
284 -283 -15 0
285 -282 0
285 -284 0
-285 282 284 0
-286 195 0
-286 204 0
286 -195 -204 0
-287 286 0
-287 15 0
287 -286 -15 0
288 -285 0
288 -287 0
-288 285 287 0
-289 43 0
-289 50 0
289 -43 -50 0
-290 289 0
-290 76 0
290 -289 -76 0
-291 290 0
-291 122 0
291 -290 -122 0
-292 291 0
-292 204 0
292 -291 -204 0
-293 292 0
-293 15 0
293 -292 -15 0
294 -288 0
294 -293 0
-294 288 293 0
-295 203 0
-295 13 0
295 -203 -13 0
296 15 0
-296 -15 0
-297 295 0
-297 296 0
297 -295 -296 0
298 -294 0
298 -297 0
-298 294 297 0
-299 14 0
-299 296 0
299 -14 -296 0
300 -298 0
300 -299 0
-300 298 299 0
-301 32 0
-301 296 0
301 -32 -296 0
302 -300 0
302 -301 0
-302 300 301 0
-303 143 0
-303 11 0
303 -143 -11 0
-304 303 0
-304 13 0
304 -303 -13 0
-305 304 0
-305 296 0
305 -304 -296 0
306 -302 0
306 -305 0
-306 302 305 0
-307 47 0
-307 296 0
307 -47 -296 0
308 -306 0
308 -307 0
-308 306 307 0
-309 73 0
-309 296 0
309 -73 -296 0
310 -308 0
310 -309 0
-310 308 309 0
-311 228 0
-311 13 0
311 -228 -13 0
-312 311 0
-312 296 0
312 -311 -296 0
313 -310 0
313 -312 0
-313 310 312 0
-314 272 0
-314 11 0
314 -272 -11 0
-315 314 0
-315 13 0
315 -314 -13 0
-316 315 0
-316 296 0
316 -315 -296 0
317 -313 0
317 -316 0
-317 313 316 0
-318 84 0
-318 296 0
318 -84 -296 0
319 -317 0
319 -318 0
-319 317 318 0
-320 89 0
-320 296 0
320 -89 -296 0
321 -319 0
321 -320 0
-321 319 320 0
-322 106 0
-322 296 0
322 -106 -296 0
323 -321 0
323 -322 0
-323 321 322 0
-324 240 0
-324 13 0
324 -240 -13 0
-325 324 0
-325 296 0
325 -324 -296 0
326 -323 0
326 -325 0
-326 323 325 0
-327 112 0
-327 296 0
327 -112 -296 0
328 -326 0
328 -327 0
-328 326 327 0
-329 64 0
-329 76 0
329 -64 -76 0
-330 329 0
-330 11 0
330 -329 -11 0
-331 330 0
-331 13 0
331 -330 -13 0
-332 331 0
-332 296 0
332 -331 -296 0
333 -328 0
333 -332 0
-333 328 332 0
-334 117 0
-334 296 0
334 -117 -296 0
335 -333 0
335 -334 0
-335 333 334 0
-336 132 0
-336 296 0
336 -132 -296 0
337 -335 0
337 -336 0
-337 335 336 0
-338 145 0
-338 296 0
338 -145 -296 0
339 -337 0
339 -338 0
-339 337 338 0
-340 45 0
-340 122 0
340 -45 -122 0
-341 340 0
-341 13 0
341 -340 -13 0
-342 341 0
-342 296 0
342 -341 -296 0
343 -339 0
343 -342 0
-343 339 342 0
-344 52 0
-344 122 0
344 -52 -122 0
-345 344 0
-345 13 0
345 -344 -13 0
-346 345 0
-346 296 0
346 -345 -296 0
347 -343 0
347 -346 0
-347 343 346 0
-348 257 0
-348 13 0
348 -257 -13 0
-349 348 0
-349 296 0
349 -348 -296 0
350 -347 0
350 -349 0
-350 347 349 0
-351 261 0
-351 13 0
351 -261 -13 0
-352 351 0
-352 296 0
352 -351 -296 0
353 -350 0
353 -352 0
-353 350 352 0
-354 65 0
-354 122 0
354 -65 -122 0
-355 354 0
-355 13 0
355 -354 -13 0
-356 355 0
-356 296 0
356 -355 -296 0
357 -353 0
357 -356 0
-357 353 356 0
-358 71 0
-358 122 0
358 -71 -122 0
-359 358 0
-359 13 0
359 -358 -13 0
-360 359 0
-360 296 0
360 -359 -296 0
361 -357 0
361 -360 0
-361 357 360 0
-362 265 0
-362 13 0
362 -265 -13 0
-363 362 0
-363 296 0
363 -362 -296 0
364 -361 0
364 -363 0
-364 361 363 0
-365 273 0
-365 13 0
365 -273 -13 0
-366 365 0
-366 296 0
366 -365 -296 0
367 -364 0
367 -366 0
-367 364 366 0
-368 169 0
-368 296 0
368 -169 -296 0
369 -367 0
369 -368 0
-369 367 368 0
-370 173 0
-370 296 0
370 -173 -296 0
371 -369 0
371 -370 0
-371 369 370 0
-372 177 0
-372 296 0
372 -177 -296 0
373 -371 0
373 -372 0
-373 371 372 0
-374 196 0
-374 296 0
374 -196 -296 0
375 -373 0
375 -374 0
-375 373 374 0
-376 329 0
-376 122 0
376 -329 -122 0
-377 376 0
-377 13 0
377 -376 -13 0
-378 377 0
-378 296 0
378 -377 -296 0
379 -375 0
379 -378 0
-379 375 378 0
-380 291 0
-380 13 0
380 -291 -13 0
-381 380 0
-381 296 0
381 -380 -296 0
382 -379 0
382 -381 0
-382 379 381 0
-383 205 0
-383 296 0
383 -205 -296 0
384 -382 0
384 -383 0
-384 382 383 0
-385 22 0
-385 204 0
385 -22 -204 0
-386 385 0
-386 296 0
386 -385 -296 0
387 -384 0
387 -386 0
-387 384 386 0
-388 31 0
-388 204 0
388 -31 -204 0
-389 388 0
-389 296 0
389 -388 -296 0
390 -387 0
390 -389 0
-390 387 389 0
-391 38 0
-391 204 0
391 -38 -204 0
-392 391 0
-392 296 0
392 -391 -296 0
393 -390 0
393 -392 0
-393 390 392 0
-394 212 0
-394 296 0
394 -212 -296 0
395 -393 0
395 -394 0
-395 393 394 0
-396 59 0
-396 204 0
396 -59 -204 0
-397 396 0
-397 296 0
397 -396 -296 0
398 -395 0
398 -397 0
-398 395 397 0
-399 217 0
-399 296 0
399 -217 -296 0
400 -398 0
400 -399 0
-400 398 399 0
-401 78 0
-401 204 0
401 -78 -204 0
-402 401 0
-402 296 0
402 -401 -296 0
403 -400 0
403 -402 0
-403 400 402 0
-404 314 0
-404 204 0
404 -314 -204 0
-405 404 0
-405 296 0
405 -404 -296 0
406 -403 0
406 -405 0
-406 403 405 0
-407 83 0
-407 204 0
407 -83 -204 0
-408 407 0
-408 296 0
408 -407 -296 0
409 -406 0
409 -408 0
-409 406 408 0
-410 233 0
-410 296 0
410 -233 -296 0
411 -409 0
411 -410 0
-411 409 410 0
-412 88 0
-412 204 0
412 -88 -204 0
-413 412 0
-413 296 0
413 -412 -296 0
414 -411 0
414 -413 0
-414 411 413 0
-415 93 0
-415 204 0
415 -93 -204 0
-416 415 0
-416 296 0
416 -415 -296 0
417 -414 0
417 -416 0
-417 414 416 0
-418 100 0
-418 204 0
418 -100 -204 0
-419 418 0
-419 296 0
419 -418 -296 0
420 -417 0
420 -419 0
-420 417 419 0
-421 105 0
-421 204 0
421 -105 -204 0
-422 421 0
-422 296 0
422 -421 -296 0
423 -420 0
423 -422 0
-423 420 422 0
-424 237 0
-424 296 0
424 -237 -296 0
425 -423 0
425 -424 0
-425 423 424 0
-426 111 0
-426 204 0
426 -111 -204 0
-427 426 0
-427 296 0
427 -426 -296 0
428 -425 0
428 -427 0
-428 425 427 0
-429 330 0
-429 204 0
429 -330 -204 0
-430 429 0
-430 296 0
430 -429 -296 0
431 -428 0
431 -430 0
-431 428 430 0
-432 247 0
-432 296 0
432 -247 -296 0
433 -431 0
433 -432 0
-433 431 432 0
-434 131 0
-434 204 0
434 -131 -204 0
-435 434 0
-435 296 0
435 -434 -296 0
436 -433 0
436 -435 0
-436 433 435 0
-437 30 0
-437 122 0
437 -30 -122 0
-438 437 0
-438 204 0
438 -437 -204 0
-439 438 0
-439 296 0
439 -438 -296 0
440 -436 0
440 -439 0
-440 436 439 0
-441 340 0
-441 204 0
441 -340 -204 0
-442 441 0
-442 296 0
442 -441 -296 0
443 -440 0
443 -442 0
-443 440 442 0
-444 149 0
-444 204 0
444 -149 -204 0
-445 444 0
-445 296 0
445 -444 -296 0
446 -443 0
446 -445 0
-446 443 445 0
-447 344 0
-447 204 0
447 -344 -204 0
-448 447 0
-448 296 0
448 -447 -296 0
449 -446 0
449 -448 0
-449 446 448 0
-450 258 0
-450 296 0
450 -258 -296 0
451 -449 0
451 -450 0
-451 449 450 0
-452 154 0
-452 204 0
452 -154 -204 0
-453 452 0
-453 296 0
453 -452 -296 0
454 -451 0
454 -453 0
-454 451 453 0
-455 274 0
-455 296 0
455 -274 -296 0
456 -454 0
456 -455 0
-456 454 455 0
-457 163 0
-457 204 0
457 -163 -204 0
-458 457 0
-458 296 0
458 -457 -296 0
459 -456 0
459 -458 0
-459 456 458 0
-460 168 0
-460 204 0
460 -168 -204 0
-461 460 0
-461 296 0
461 -460 -296 0
462 -459 0
462 -461 0
-462 459 461 0
-463 277 0
-463 296 0
463 -277 -296 0
464 -462 0
464 -463 0
-464 462 463 0
-465 176 0
-465 204 0
465 -176 -204 0
-466 465 0
-466 296 0
466 -465 -296 0
467 -464 0
467 -466 0
-467 464 466 0
-468 283 0
-468 296 0
468 -283 -296 0
469 -467 0
469 -468 0
-469 467 468 0
-470 286 0
-470 296 0
470 -286 -296 0
471 -469 0
471 -470 0
-471 469 470 0
-472 199 0
-472 204 0
472 -199 -204 0
-473 472 0
-473 296 0
473 -472 -296 0
474 -471 0
474 -473 0
-474 471 473 0
-475 292 0
-475 296 0
475 -292 -296 0
476 -474 0
476 -475 0
-476 474 475 0
477 -9 11 0
477 9 -11 0
-477 -9 -11 0
-477 9 11 0
478 -477 13 0
478 477 -13 0
-478 -477 -13 0
-478 477 13 0
479 -478 15 0
479 478 -15 0
-479 -478 -15 0
-479 478 15 0
480 -476 -479 0
480 476 479 0
-480 -476 479 0
-480 476 -479 0
480 0
